c description: Random 3-CNF over 15 variables and 65 clauses
c generator: CNFgen (0.9.0)
c copyright: (C) 2012-2020 Massimo Lauria <massimo.lauria@uniroma1.it>
c url: https://massimolauria.net/cnfgen
c
p cnf 15 65
-5 -10 -14 0
2 9 15 0
6 10 -13 0
-2 -9 -13 0
-10 -12 -15 0
3 4 -8 0
1 -3 -11 0
-3 -12 -13 0
4 9 -12 0
3 7 -10 0
1 5 -12 0
-2 -7 -11 0
-3 8 -10 0
-2 -5 8 0
-1 -7 -15 0
-3 9 -15 0
2 3 -5 0
-6 7 -12 0
-1 7 11 0
2 14 -15 0
7 9 14 0
-1 -8 14 0
-4 13 -15 0
-7 -11 -15 0
5 12 -14 0
1 -10 -12 0
5 -9 13 0
-6 8 -9 0
-8 12 13 0
-4 7 8 0
1 -2 -7 0
1 10 -13 0
-6 8 15 0
-2 -9 -11 0
-5 -11 -13 0
-4 9 11 0
2 3 13 0
-2 8 12 0
-5 9 -10 0
-4 -8 -14 0
11 12 -13 0
-5 -7 -12 0
5 6 11 0
7 -9 15 0
-4 5 -7 0
2 -14 15 0
-5 -6 -15 0
-1 5 -11 0
4 9 -10 0
-3 -4 7 0
1 -3 -14 0
4 -8 -12 0
4 -7 -14 0
-3 -11 -14 0
-1 -5 11 0
2 -13 -14 0
7 -8 13 0
-5 -9 -11 0
6 7 -14 0
1 7 -14 0
-6 12 -14 0
1 4 -13 0
10 -12 -13 0
-1 12 15 0
-2 13 15 0